proyfinal/src/viki/013/andrea/andrea-localstore/experimentInOfficeAgust.take6/worker_8/787c4477-b365-4864-a884-ff0740f8d3ef.als.cnf.out
Reading from standard input... Use '--help' for help.
============================[ Problem Statistics ]=============================
|                                                                             |
|  Number of variables:         87638                                         |
|  Number of clauses:          161767                                         |
|  Parse time:                   0.04 s                                       |
|                                                                             |
============================[ Search Statistics ]==============================
| Conflicts |          ORIGINAL         |          LEARNT          | Progress |
|           |    Vars  Clauses Literals |    Limit  Clauses Lit/Cl |          |
===============================================================================
|       100 |   62052   103959   259817 |    38118      100     33 | 29.195 % |
|       250 |   62052   103959   259817 |    41930      250     88 | 29.195 % |
|       475 |   62051   103915   259727 |    46123      474     89 | 29.196 % |
|       812 |   62051   103915   259727 |    50735      811    103 | 29.196 % |
|      1318 |   62012   103837   259540 |    55809     1315    105 | 29.241 % |
|      2077 |   62012   103761   259359 |    61389     2074    103 | 29.241 % |
|      3216 |   61993   103685   259178 |    67528     3212     98 | 29.263 % |
|      4924 |   46588    59527   150486 |    74281     4510     82 | 46.840 % |
|      7486 |   46502    59320   150010 |    81709     6800     65 | 46.939 % |
===============================================================================
restarts              : 39
conflicts             : 9320           (7405 /sec)
decisions             : 32244          (0.00 % random) (25617 /sec)
propagations          : 14082615       (11188355 /sec)
conflict literals     : 566006         (44.21 % deleted)
Memory used           : 31.35 MB
CPU time              : 1.25869 s

UNSATISFIABLE
